
Gurobi 10.0.3 (linux64, gurobi_cl) logging started Thu Nov  9 11:48:13 2023

Set parameter Username
Set parameter TimeLimit to value 3600
Set parameter LogFile to value "RCPSP_1102.log"
Set parameter Threads to value 32
Academic license - for non-commercial use only - expires 2024-10-30
Using license file /home/jrivera6/gurobi-licenses/v1003/compute-0-38/gurobi.lic

Gurobi Optimizer version 10.0.3 build v10.0.3rc0 (linux64)
Copyright (c) 2023, Gurobi Optimization, LLC

Read MPS format model from file RCPSP_1102.mps
Reading time = 0.20 seconds
RCPSP_1102: 42919 rows, 17020 columns, 159123 nonzeros

CPU model: Intel(R) Xeon(R) Gold 6242 CPU @ 2.80GHz, instruction set [SSE2|AVX|AVX2|AVX512]
Thread count: 32 physical cores, 32 logical processors, using up to 32 threads

Optimize a model with 42919 rows, 17020 columns and 159123 nonzeros
Model fingerprint: 0x90037afb
Variable types: 92 continuous, 16928 integer (16928 binary)
Coefficient statistics:
  Matrix range     [1e+00, 5e+02]
  Objective range  [1e+00, 1e+00]
  Bounds range     [1e+00, 1e+00]
  RHS range        [1e+00, 5e+02]
Presolve removed 7322 rows and 1631 columns
Presolve time: 2.29s
Presolved: 35597 rows, 15389 columns, 139230 nonzeros
Variable types: 91 continuous, 15298 integer (15298 binary)

Deterministic concurrent LP optimizer: primal and dual simplex (primal and dual model)
Showing first log only...

Root relaxation presolved: 35597 rows, 15389 columns, 139230 nonzeros

Concurrent spin time: 0.61s

Solved with dual simplex (dual model)

Root relaxation: objective 7.100000e+01, 10765 iterations, 1.91 seconds (0.18 work units)
Total elapsed time = 6.10s

    Nodes    |    Current Node    |     Objective Bounds      |     Work
 Expl Unexpl |  Obj  Depth IntInf | Incumbent    BestBd   Gap | It/Node Time

     0     0   71.00000    0    8          -   71.00000      -     -    7s
     0     0   71.00000    0  462          -   71.00000      -     -   21s
     0     0   71.00000    0    2          -   71.00000      -     -   26s
     0     0   71.00000    0    6          -   71.00000      -     -   29s
     0     0   71.00000    0   16          -   71.00000      -     -   29s
     0     0   71.00000    0    7          -   71.00000      -     -   30s
     0     0   71.00000    0    7          -   71.00000      -     -   30s
     0     0   71.00000    0    4          -   71.00000      -     -   34s
     0     0   71.00000    0    8          -   71.00000      -     -   37s
     0     0   71.00000    0    4          -   71.00000      -     -   40s
     0     0   71.00000    0    4          -   71.00000      -     -   47s
     0     2   71.00000    0    4          -   71.00000      -     -   56s
     1     4   71.00000    1    4          -   71.00000      -  21.0   60s
     3     7   71.00000    2   52          -   71.00000      -  74.3   67s
     7    14   71.00000    3   54          -   71.00000      -  83.1   75s
    14    24   71.00000    4   66          -   71.00000      -   119   81s
    28    42   71.00000    5   48          -   71.00000      -  98.0   90s
    52    73   71.00000    6   42          -   71.00000      -   106  100s
    84   101   71.00000    7   92          -   71.00000      -   108  106s
   116   130   71.00000    8   81          -   71.00000      -  87.8  112s
   148   159   71.00000    9   78          -   71.00000      -  70.4  115s
   180   186   71.00000   10    4          -   71.00000      -  71.3  126s
*  187   186              10      71.0000000   71.00000  0.00%   114  126s

Cutting planes:
  Gomory: 28
  Cover: 6
  Implied bound: 52
  MIR: 424
  RLT: 236
  Relax-and-lift: 96

Explored 212 nodes (63826 simplex iterations) in 127.05 seconds (13.25 work units)
Thread count was 32 (of 32 available processors)

Solution count 1: 71 

Optimal solution found (tolerance 1.00e-04)
Best objective 7.100000000000e+01, best bound 7.100000000000e+01, gap 0.0000%

Wrote result file 'RCPSP_1102.sol'

